S=4;
horizontal =
[| "0","0","0","0","0","0","0","0","0","0","0","0"
| "0","0","0","0",">","0","0","0","0","0","0","0"
| "0","0","0","0","0","0","0","0","0","0","0","0"
| "0","0","0","0","0","0","0","0","0",">","0","0"
| "0","0","0","0","0","0","0","0","0","0","0","0"
| "0","0","0","0","0","0","0","0","0","0","0","0"
| "0","0","0","0","0","0","0","0","0","0","0","0"
| "0","0","0","0","0","0","0","0","0","0","0","0"
| "0","0","0","0","0","0","0","0","0","0","<","0"
| "0","0","0","0","0","0","0","0","0","0","0","0"
| "0","0","0","0","0","0","0","0","0","0","0","0"
| "0","0","0","0","0","<","0","0","0","0","0","0"
| "0","0","0","0","0","0","0","0","0","0","0","0"
| "0","0",">","0","0","0","0","0","0","0","0","0"
| "0","0","0","0","0","0","0","0","0","0","0","0"
| "0","0","0","0","0","0","0","0","0","0","0","0"|];

vertical =
[| "0","v","^","0","v","^","^","^","0","0","0","0","0","0","0","0"
| "0","v","^","0","v","^","^","^","0","0","0","0","0","0","0","0"
| "0","v","^","0","v","^","^","^","0","0","0","0","0","0","0","0"
| "0","v","^","0","v","^","^","^","0","0","0","0","0","0","0","0"
| "0","v","^","0","v","^","^","^","0","0","0","0","0","0","0","0"
| "0","v","^","0","v","^","^","^","0","0","0","0","0","0","0","0"
| "0","v","^","0","v","^","^","^","0","0","0","0","0","0","0","0"
| "0","v","^","0","v","^","^","^","0","0","0","0","0","0","0","0"
| "0","v","^","0","v","^","^","^","0","0","0","0","0","0","0","0"
| "0","v","^","0","v","^","^","^","0","0","0","0","0","0","0","0"
| "0","v","^","0","v","^","^","^","0","0","0","0","0","0","0","0"
| "0","v","^","0","v","^","^","^","0","0","0","0","0","0","0","0"|];